c File: flat50_3_0.col
c
c SOURCE: Joseph Culberson (joe@cs.ualberta.ca)
c DESCRIPTION: Quasi-random coloring problem
c              generated with flatness = 0
c                             probability = 0.139
c                             known coloring = 3
c                             random seed = 1803
c              Creation Date:  Tue Jun  9 12:18:18 1998
c Maximum degree = 7 Minimum degree = 2
c p edge 50 115
c cnf created by edge2cnf
p cnf 150 545
-1 -2 0
-1 -3 0
-2 -3 0
1 2 3 0
-4 -5 0
-4 -6 0
-5 -6 0
4 5 6 0
-7 -8 0
-7 -9 0
-8 -9 0
7 8 9 0
-10 -11 0
-10 -12 0
-11 -12 0
10 11 12 0
-13 -14 0
-13 -15 0
-14 -15 0
13 14 15 0
-16 -17 0
-16 -18 0
-17 -18 0
16 17 18 0
-19 -20 0
-19 -21 0
-20 -21 0
19 20 21 0
-22 -23 0
-22 -24 0
-23 -24 0
22 23 24 0
-25 -26 0
-25 -27 0
-26 -27 0
25 26 27 0
-28 -29 0
-28 -30 0
-29 -30 0
28 29 30 0
-31 -32 0
-31 -33 0
-32 -33 0
31 32 33 0
-34 -35 0
-34 -36 0
-35 -36 0
34 35 36 0
-37 -38 0
-37 -39 0
-38 -39 0
37 38 39 0
-40 -41 0
-40 -42 0
-41 -42 0
40 41 42 0
-43 -44 0
-43 -45 0
-44 -45 0
43 44 45 0
-46 -47 0
-46 -48 0
-47 -48 0
46 47 48 0
-49 -50 0
-49 -51 0
-50 -51 0
49 50 51 0
-52 -53 0
-52 -54 0
-53 -54 0
52 53 54 0
-55 -56 0
-55 -57 0
-56 -57 0
55 56 57 0
-58 -59 0
-58 -60 0
-59 -60 0
58 59 60 0
-61 -62 0
-61 -63 0
-62 -63 0
61 62 63 0
-64 -65 0
-64 -66 0
-65 -66 0
64 65 66 0
-67 -68 0
-67 -69 0
-68 -69 0
67 68 69 0
-70 -71 0
-70 -72 0
-71 -72 0
70 71 72 0
-73 -74 0
-73 -75 0
-74 -75 0
73 74 75 0
-76 -77 0
-76 -78 0
-77 -78 0
76 77 78 0
-79 -80 0
-79 -81 0
-80 -81 0
79 80 81 0
-82 -83 0
-82 -84 0
-83 -84 0
82 83 84 0
-85 -86 0
-85 -87 0
-86 -87 0
85 86 87 0
-88 -89 0
-88 -90 0
-89 -90 0
88 89 90 0
-91 -92 0
-91 -93 0
-92 -93 0
91 92 93 0
-94 -95 0
-94 -96 0
-95 -96 0
94 95 96 0
-97 -98 0
-97 -99 0
-98 -99 0
97 98 99 0
-100 -101 0
-100 -102 0
-101 -102 0
100 101 102 0
-103 -104 0
-103 -105 0
-104 -105 0
103 104 105 0
-106 -107 0
-106 -108 0
-107 -108 0
106 107 108 0
-109 -110 0
-109 -111 0
-110 -111 0
109 110 111 0
-112 -113 0
-112 -114 0
-113 -114 0
112 113 114 0
-115 -116 0
-115 -117 0
-116 -117 0
115 116 117 0
-118 -119 0
-118 -120 0
-119 -120 0
118 119 120 0
-121 -122 0
-121 -123 0
-122 -123 0
121 122 123 0
-124 -125 0
-124 -126 0
-125 -126 0
124 125 126 0
-127 -128 0
-127 -129 0
-128 -129 0
127 128 129 0
-130 -131 0
-130 -132 0
-131 -132 0
130 131 132 0
-133 -134 0
-133 -135 0
-134 -135 0
133 134 135 0
-136 -137 0
-136 -138 0
-137 -138 0
136 137 138 0
-139 -140 0
-139 -141 0
-140 -141 0
139 140 141 0
-142 -143 0
-142 -144 0
-143 -144 0
142 143 144 0
-145 -146 0
-145 -147 0
-146 -147 0
145 146 147 0
-148 -149 0
-148 -150 0
-149 -150 0
148 149 150 0
-61 -1 0
-62 -2 0
-63 -3 0
-91 -1 0
-92 -2 0
-93 -3 0
-133 -1 0
-134 -2 0
-135 -3 0
-139 -1 0
-140 -2 0
-141 -3 0
-55 -4 0
-56 -5 0
-57 -6 0
-58 -4 0
-59 -5 0
-60 -6 0
-61 -4 0
-62 -5 0
-63 -6 0
-103 -4 0
-104 -5 0
-105 -6 0
-118 -4 0
-119 -5 0
-120 -6 0
-142 -4 0
-143 -5 0
-144 -6 0
-70 -7 0
-71 -8 0
-72 -9 0
-85 -7 0
-86 -8 0
-87 -9 0
-103 -7 0
-104 -8 0
-105 -9 0
-112 -7 0
-113 -8 0
-114 -9 0
-121 -7 0
-122 -8 0
-123 -9 0
-145 -7 0
-146 -8 0
-147 -9 0
-100 -10 0
-101 -11 0
-102 -12 0
-103 -10 0
-104 -11 0
-105 -12 0
-130 -10 0
-131 -11 0
-132 -12 0
-136 -10 0
-137 -11 0
-138 -12 0
-145 -10 0
-146 -11 0
-147 -12 0
-85 -13 0
-86 -14 0
-87 -15 0
-136 -13 0
-137 -14 0
-138 -15 0
-142 -13 0
-143 -14 0
-144 -15 0
-52 -16 0
-53 -17 0
-54 -18 0
-64 -16 0
-65 -17 0
-66 -18 0
-76 -16 0
-77 -17 0
-78 -18 0
-124 -16 0
-125 -17 0
-126 -18 0
-148 -16 0
-149 -17 0
-150 -18 0
-52 -19 0
-53 -20 0
-54 -21 0
-67 -19 0
-68 -20 0
-69 -21 0
-76 -19 0
-77 -20 0
-78 -21 0
-82 -19 0
-83 -20 0
-84 -21 0
-115 -19 0
-116 -20 0
-117 -21 0
-52 -22 0
-53 -23 0
-54 -24 0
-70 -22 0
-71 -23 0
-72 -24 0
-73 -22 0
-74 -23 0
-75 -24 0
-91 -22 0
-92 -23 0
-93 -24 0
-88 -25 0
-89 -26 0
-90 -27 0
-100 -25 0
-101 -26 0
-102 -27 0
-85 -28 0
-86 -29 0
-87 -30 0
-118 -28 0
-119 -29 0
-120 -30 0
-127 -28 0
-128 -29 0
-129 -30 0
-133 -28 0
-134 -29 0
-135 -30 0
-139 -28 0
-140 -29 0
-141 -30 0
-52 -31 0
-53 -32 0
-54 -33 0
-76 -31 0
-77 -32 0
-78 -33 0
-88 -31 0
-89 -32 0
-90 -33 0
-91 -31 0
-92 -32 0
-93 -33 0
-127 -31 0
-128 -32 0
-129 -33 0
-139 -31 0
-140 -32 0
-141 -33 0
-73 -34 0
-74 -35 0
-75 -36 0
-82 -34 0
-83 -35 0
-84 -36 0
-121 -34 0
-122 -35 0
-123 -36 0
-58 -37 0
-59 -38 0
-60 -39 0
-61 -37 0
-62 -38 0
-63 -39 0
-100 -37 0
-101 -38 0
-102 -39 0
-106 -37 0
-107 -38 0
-108 -39 0
-115 -37 0
-116 -38 0
-117 -39 0
-136 -37 0
-137 -38 0
-138 -39 0
-58 -40 0
-59 -41 0
-60 -42 0
-61 -40 0
-62 -41 0
-63 -42 0
-91 -40 0
-92 -41 0
-93 -42 0
-103 -40 0
-104 -41 0
-105 -42 0
-130 -40 0
-131 -41 0
-132 -42 0
-76 -43 0
-77 -44 0
-78 -45 0
-94 -43 0
-95 -44 0
-96 -45 0
-97 -43 0
-98 -44 0
-99 -45 0
-121 -43 0
-122 -44 0
-123 -45 0
-127 -43 0
-128 -44 0
-129 -45 0
-97 -46 0
-98 -47 0
-99 -48 0
-100 -46 0
-101 -47 0
-102 -48 0
-145 -46 0
-146 -47 0
-147 -48 0
-148 -46 0
-149 -47 0
-150 -48 0
-115 -49 0
-116 -50 0
-117 -51 0
-118 -49 0
-119 -50 0
-120 -51 0
-121 -49 0
-122 -50 0
-123 -51 0
-136 -49 0
-137 -50 0
-138 -51 0
-124 -52 0
-125 -53 0
-126 -54 0
-133 -52 0
-134 -53 0
-135 -54 0
-115 -55 0
-116 -56 0
-117 -57 0
-118 -55 0
-119 -56 0
-120 -57 0
-130 -55 0
-131 -56 0
-132 -57 0
-139 -58 0
-140 -59 0
-141 -60 0
-106 -61 0
-107 -62 0
-108 -63 0
-118 -61 0
-119 -62 0
-120 -63 0
-136 -61 0
-137 -62 0
-138 -63 0
-115 -64 0
-116 -65 0
-117 -66 0
-145 -64 0
-146 -65 0
-147 -66 0
-118 -67 0
-119 -68 0
-120 -69 0
-127 -67 0
-128 -68 0
-129 -69 0
-109 -70 0
-110 -71 0
-111 -72 0
-124 -70 0
-125 -71 0
-126 -72 0
-127 -70 0
-128 -71 0
-129 -72 0
-127 -76 0
-128 -77 0
-129 -78 0
-106 -79 0
-107 -80 0
-108 -81 0
-109 -79 0
-110 -80 0
-111 -81 0
-112 -79 0
-113 -80 0
-114 -81 0
-121 -79 0
-122 -80 0
-123 -81 0
-115 -82 0
-116 -83 0
-117 -84 0
-133 -82 0
-134 -83 0
-135 -84 0
-118 -85 0
-119 -86 0
-120 -87 0
-121 -85 0
-122 -86 0
-123 -87 0
-133 -88 0
-134 -89 0
-135 -90 0
-148 -88 0
-149 -89 0
-150 -90 0
-103 -91 0
-104 -92 0
-105 -93 0
-115 -91 0
-116 -92 0
-117 -93 0
-136 -91 0
-137 -92 0
-138 -93 0
-103 -94 0
-104 -95 0
-105 -96 0
-106 -94 0
-107 -95 0
-108 -96 0
-142 -94 0
-143 -95 0
-144 -96 0
-109 -97 0
-110 -98 0
-111 -99 0
-112 -97 0
-113 -98 0
-114 -99 0
-103 -100 0
-104 -101 0
-105 -102 0
-112 -100 0
-113 -101 0
-114 -102 0
